
Gurobi 13.0.0 (mac64[arm]) logging started Sun Dec  7 08:30:15 2025

Set parameter LogFile to value "/Users/jjung404/PyProjects/qiga/data/steiner-opt/ES10FST/es10fst10_log.txt"
Set parameter OutputFlag to value 1
Gurobi Optimizer version 13.0.0 build v13.0.0rc1 (mac64[arm] - Darwin 24.6.0 24G325)

CPU model: Apple M3
Thread count: 8 physical cores, 8 logical processors, using up to 8 threads

Optimize a model with 70 rows, 63 columns and 186 nonzeros (Min)
Model fingerprint: 0x5dd0426a
Model has 21 linear objective coefficients
Variable types: 42 continuous, 21 integer (21 binary)
Coefficient statistics:
  Matrix range     [1e+00, 9e+00]
  Objective range  [2e+05, 4e+06]
  Bounds range     [1e+00, 1e+00]
  RHS range        [1e+00, 9e+00]
Found heuristic solution: objective 3.019719e+07
Presolve removed 27 rows and 21 columns
Presolve time: 0.00s
Presolved: 43 rows, 42 columns, 131 nonzeros
Variable types: 28 continuous, 14 integer (14 binary)

Root relaxation: objective 1.915112e+07, 23 iterations, 0.00 seconds (0.00 work units)

    Nodes    |    Current Node    |     Objective Bounds      |     Work
 Expl Unexpl |  Obj  Depth IntInf | Incumbent    BestBd   Gap | It/Node Time

     0     0 1.9151e+07    0    9 3.0197e+07 1.9151e+07  36.6%     -    0s
H    0     0                    2.868783e+07 1.9151e+07  33.2%     -    0s
H    0     0                    2.530952e+07 1.9151e+07  24.3%     -    0s
H    0     0                    2.409633e+07 2.2403e+07  7.03%     -    0s
     0     0 2.2403e+07    0   10 2.4096e+07 2.2403e+07  7.03%     -    0s
H    0     0                    2.393610e+07 2.3106e+07  3.47%     -    0s
     0     0 2.3106e+07    0    7 2.3936e+07 2.3106e+07  3.47%     -    0s
     0     0     cutoff    0      2.3936e+07 2.3936e+07  0.00%     -    0s

Cutting planes:
  Learned: 1
  Gomory: 3
  Cover: 1
  Implied bound: 2
  MIR: 6
  Flow cover: 8
  Flow path: 3
  Network: 6
  RLT: 1
  Relax-and-lift: 2

Explored 1 nodes (55 simplex iterations) in 0.00 seconds (0.00 work units)
Thread count was 8 (of 8 available processors)

Solution count 5: 2.39361e+07 2.40963e+07 2.53095e+07 ... 3.01972e+07

Optimal solution found (tolerance 1.00e-04)
Best objective 2.393609500000e+07, best bound 2.393609500000e+07, gap 0.0000%
